instances/knapsack/discrete_knapsack_uncertainty/knapsack_150_7.lp
\ Model knapsack_150_7
\ LP format - for model browsing. Use MPS format to capture full model detail.
\ Signature: 0x1d3d114bfbe69093
Minimize
  - 52 x[0] - 64 x[1] - 50 x[2] - 78 x[3] - 7 x[4] - 83 x[5] - 23 x[6]
   - 85 x[7] - 60 x[8] - 28 x[9] - 25 x[10] - 97 x[11] - 89 x[12]
   - 72 x[13] - 93 x[14] - 46 x[15] - 84 x[16] - 76 x[17] - 100 x[18]
   - 35 x[19] - 35 x[20] - 85 x[21] - 22 x[22] - 22 x[23] - 91 x[24]
   - 28 x[25] - 74 x[26] - 73 x[27] - 36 x[28] - 90 x[29] - 71 x[30]
   - 50 x[31] - 34 x[32] - 81 x[33] - 49 x[34] - 39 x[35] - 99 x[36]
   - 29 x[37] - 12 x[38] - 45 x[39] - 50 x[40] - 75 x[41] - 95 x[42]
   - 65 x[43] - 56 x[44] - 89 x[45] - 10 x[46] - 10 x[47] - 66 x[48]
   - 63 x[49] - 9 x[50] - 76 x[51] - x[52] - 67 x[53] - 26 x[54] - 96 x[55]
   - 72 x[56] - 62 x[57] - 82 x[58] - 9 x[59] - 62 x[60] - 100 x[61]
   - 51 x[62] - 11 x[63] - 68 x[64] - 7 x[65] - 79 x[66] - 23 x[67]
   - 58 x[68] - 83 x[69] - 3 x[70] - 61 x[71] - 71 x[72] - 35 x[73]
   - 16 x[74] - 48 x[75] - 40 x[76] - 75 x[77] - 90 x[78] - 89 x[79]
   - 45 x[80] - 64 x[81] - 35 x[82] - 76 x[83] - 55 x[84] - 66 x[85]
   - 36 x[86] - 85 x[87] - 10 x[88] - 68 x[89] - 32 x[90] - 11 x[91]
   - 19 x[92] - 66 x[93] - 94 x[94] - 76 x[95] - 39 x[96] - 34 x[97]
   - 66 x[98] - 54 x[99] - 14 x[100] - 95 x[101] - 52 x[102] - 71 x[103]
   - 69 x[104] - 69 x[105] - 32 x[106] - 78 x[107] - 84 x[108] - 42 x[109]
   - 79 x[110] - 24 x[111] - 83 x[112] - 17 x[113] - 28 x[114] - 11 x[115]
   - 81 x[116] - 87 x[117] - 76 x[118] - 25 x[119] - 15 x[120] - 88 x[121]
   - 44 x[122] - 89 x[123] - 13 x[124] - 70 x[125] - 94 x[126] - 8 x[127]
   - 21 x[128] - 78 x[129] - 36 x[130] - 29 x[131] - 30 x[132] - 44 x[133]
   - 99 x[134] - 45 x[135] - 26 x[136] - 15 x[137] - 97 x[138] - 75 x[139]
   - 80 x[140] - 10 x[141] - 39 x[142] - 81 x[143] - 62 x[144] - 32 x[145]
   - 31 x[146] - 97 x[147] - 6 x[148] - 48 x[149]
Subject To
 primal_upper: 19 x[0] + 80 x[1] + 46 x[2] + 83 x[3] + 68 x[4] + 41 x[5]
   + 97 x[6] + 91 x[7] + 33 x[8] + 94 x[9] + 99 x[10] + 91 x[11] + 28 x[12]
   + 84 x[13] + 76 x[14] + 64 x[15] + 41 x[16] + 88 x[17] + 9 x[18]
   + 66 x[19] + 21 x[20] + 19 x[21] + 76 x[22] + 98 x[23] + 4 x[24]
   + 16 x[25] + 78 x[26] + 35 x[27] + 65 x[28] + 51 x[29] + 9 x[30]
   + 31 x[31] + 71 x[32] + 53 x[33] + 32 x[34] + 5 x[35] + 40 x[36]
   + 40 x[37] + 88 x[38] + 6 x[39] + 3 x[40] + 53 x[41] + 30 x[42]
   + 17 x[43] + 19 x[44] + 94 x[45] + 61 x[46] + 89 x[47] + 71 x[48]
   + 40 x[49] + 94 x[50] + 24 x[51] + x[52] + 60 x[53] + 16 x[54]
   + 63 x[55] + 61 x[56] + 66 x[57] + 100 x[58] + 14 x[59] + 88 x[60]
   + 18 x[61] + 63 x[62] + 6 x[63] + 39 x[64] + 72 x[65] + 76 x[66]
   + 46 x[67] + 64 x[68] + 53 x[69] + 53 x[70] + 85 x[71] + 34 x[72]
   + 63 x[73] + 59 x[74] + 16 x[75] + 22 x[76] + 75 x[77] + 68 x[78]
   + 22 x[79] + 17 x[80] + 65 x[81] + 54 x[82] + 85 x[83] + 97 x[84]
   + 57 x[85] + 79 x[86] + 80 x[87] + 98 x[88] + 47 x[89] + 40 x[90]
   + 72 x[91] + 84 x[92] + 51 x[93] + 68 x[94] + 73 x[95] + 69 x[96]
   + 24 x[97] + 76 x[98] + 84 x[99] + 61 x[100] + 4 x[101] + 26 x[102]
   + 84 x[103] + 9 x[104] + 82 x[105] + 91 x[106] + 74 x[107] + 42 x[108]
   + 45 x[109] + 6 x[110] + 31 x[111] + 29 x[112] + 49 x[113] + 45 x[114]
   + 18 x[115] + 51 x[116] + 53 x[117] + 49 x[118] + 68 x[119] + 99 x[120]
   + 56 x[121] + 95 x[122] + 98 x[123] + 73 x[124] + 6 x[125] + 75 x[126]
   + 23 x[127] + 58 x[128] + 31 x[129] + 37 x[130] + 57 x[131] + 82 x[132]
   + 16 x[133] + 64 x[134] + 26 x[135] + 65 x[136] + 78 x[137] + 33 x[138]
   + 52 x[139] + 15 x[140] + 48 x[141] + 51 x[142] + 75 x[143] + 9 x[144]
   + 70 x[145] + 78 x[146] + 67 x[147] + 88 x[148] + 26 x[149] + 1.9 r[0]
   + 8 r[1] + 4.6 r[2] + 8.3 r[3] + 6.8 r[4] + 4.1 r[5] + 9.7 r[6]
   + 9.1 r[7] + 3.3 r[8] + 9.4 r[9] + 9.9 r[10] + 9.1 r[11] + 2.8 r[12]
   + 8.4 r[13] + 7.6 r[14] + 6.4 r[15] + 4.1 r[16] + 8.8 r[17] + 0.9 r[18]
   + 6.6 r[19] + 2.1 r[20] + 1.9 r[21] + 7.6 r[22] + 9.8 r[23] + 0.4 r[24]
   + 1.6 r[25] + 7.8 r[26] + 3.5 r[27] + 6.5 r[28] + 5.1 r[29] + 0.9 r[30]
   + 3.1 r[31] + 7.1 r[32] + 5.3 r[33] + 3.2 r[34] + 0.5 r[35] + 4 r[36]
   + 4 r[37] + 8.8 r[38] + 0.6 r[39] + 0.3 r[40] + 5.3 r[41] + 3 r[42]
   + 1.7 r[43] + 1.9 r[44] + 9.4 r[45] + 6.1 r[46] + 8.9 r[47] + 7.1 r[48]
   + 4 r[49] + 9.4 r[50] + 2.4 r[51] + 0.1 r[52] + 6 r[53] + 1.6 r[54]
   + 6.3 r[55] + 6.1 r[56] + 6.6 r[57] + 10 r[58] + 1.4 r[59] + 8.8 r[60]
   + 1.8 r[61] + 6.3 r[62] + 0.6 r[63] + 3.9 r[64] + 7.2 r[65] + 7.6 r[66]
   + 4.6 r[67] + 6.4 r[68] + 5.3 r[69] + 5.3 r[70] + 8.5 r[71] + 3.4 r[72]
   + 6.3 r[73] + 5.9 r[74] + 1.6 r[75] + 2.2 r[76] + 7.5 r[77] + 6.8 r[78]
   + 2.2 r[79] + 1.7 r[80] + 6.5 r[81] + 5.4 r[82] + 8.5 r[83] + 9.7 r[84]
   + 5.7 r[85] + 7.9 r[86] + 8 r[87] + 9.8 r[88] + 4.7 r[89] + 4 r[90]
   + 7.2 r[91] + 8.4 r[92] + 5.1 r[93] + 6.8 r[94] + 7.3 r[95] + 6.9 r[96]
   + 2.4 r[97] + 7.6 r[98] + 8.4 r[99] + 6.1 r[100] + 0.4 r[101]
   + 2.6 r[102] + 8.4 r[103] + 0.9 r[104] + 8.2 r[105] + 9.1 r[106]
   + 7.4 r[107] + 4.2 r[108] + 4.5 r[109] + 0.6 r[110] + 3.1 r[111]
   + 2.9 r[112] + 4.9 r[113] + 4.5 r[114] + 1.8 r[115] + 5.1 r[116]
   + 5.3 r[117] + 4.9 r[118] + 6.8 r[119] + 9.9 r[120] + 5.6 r[121]
   + 9.5 r[122] + 9.8 r[123] + 7.3 r[124] + 0.6 r[125] + 7.5 r[126]
   + 2.3 r[127] + 5.8 r[128] + 3.1 r[129] + 3.7 r[130] + 5.7 r[131]
   + 8.2 r[132] + 1.6 r[133] + 6.4 r[134] + 2.6 r[135] + 6.5 r[136]
   + 7.8 r[137] + 3.3 r[138] + 5.2 r[139] + 1.5 r[140] + 4.8 r[141]
   + 5.1 r[142] + 7.5 r[143] + 0.9 r[144] + 7 r[145] + 7.8 r[146]
   + 6.7 r[147] + 8.8 r[148] + 2.6 r[149] <= 764
 primal_lower: 1.839229290868345 x[0] + 1.112224079210133 x[1]
   + 0.984591998368486 x[2] + 2.969356555915412 x[3]
   + 4.220140203027961 x[4] + 0.5401732523592391 x[5]
   + 2.88432275473297 x[6] + 3.257741909377336 x[7] + 2.89321956786465 x[8]
   + 3.732146004926755 x[9] + 3.860566410966441 x[10]
   + 3.946422250878272 x[11] + 3.096590017288687 x[12]
   + 3.32616493348856 x[13] + 1.026138864069829 x[14]
   + 3.22710033418286 x[15] + 1.719617431242704 x[16]
   + 3.583600457189925 x[17] + 0.6328708203601454 x[18]
   + 3.135300384008656 x[19] + 1.068830046407667 x[20]
   + 1.336216689894096 x[21] + 3.297318945246417 x[22]
   + 4.752250411800945 x[23] + 2.452869921503597 x[24]
   + 2.741368775774226 x[25] + 3.011721404163754 x[26]
   + 4.21182327302868 x[27] + 4.471225865942115 x[28]
   + 4.192211040073249 x[29] + 1.477026546877495 x[30]
   + 2.840528537643126 x[31] + 4.378301354660109 x[32]
   + 1.53169205315288 x[33] + 0.9622063240616642 x[34]
   + 4.077805595731294 x[35] + 2.033640490346794 x[36]
   + 3.245242325937712 x[37] + 1.392786505801104 x[38]
   + 3.004326532552275 x[39] + 1.891798008236591 x[40]
   + 0.9806429620593603 x[41] + 0.500697920484738 x[42]
   + 2.007287190223001 x[43] + 1.764432009411834 x[44]
   + 2.188434429905727 x[45] + 1.834780105818046 x[46]
   + 0.5134327271648493 x[47] + 3.471901771969061 x[48]
   + 4.13173036982915 x[49] + 1.069601925771654 x[50]
   + 2.303292870011323 x[51] + 3.41494765057744 x[52]
   + 0.9693485138195425 x[53] + 1.846534506897998 x[54]
   + 1.979422512224246 x[55] + 1.19854880217533 x[56]
   + 3.419825130503012 x[57] + 4.609344006634135 x[58]
   + 2.213391103111973 x[59] + 1.023130288618969 x[60]
   + 4.737063567382378 x[61] + 0.0527538627282516 x[62]
   + 0.691354052365509 x[63] + 0.7351964868827792 x[64]
   + 2.814980209856516 x[65] + 3.35319432667322 x[66]
   + 1.363637100058299 x[67] + 4.133721642398386 x[68]
   + 0.0611403962357438 x[69] + 1.261560350539421 x[70]
   + 3.539393620902302 x[71] + 0.5007202608175231 x[72]
   + 0.7233828939757511 x[73] + 4.614127713405622 x[74]
   + 3.647636993488796 x[75] + 3.447770567706047 x[76]
   + 4.526555871588418 x[77] + 2.749800175448781 x[78]
   + 1.327087645451675 x[79] + 0.9995766075618816 x[80]
   + 1.251884139024546 x[81] + 2.074674370300026 x[82]
   + 0.5609327797878251 x[83] + 1.486481141392421 x[84]
   + 0.7409643636054359 x[85] + 2.439473680079993 x[86]
   + 2.040405413276054 x[87] + 1.945061697139868 x[88]
   + 4.512876399044776 x[89] + 2.863286065506828 x[90]
   + 1.718517132643695 x[91] + 4.592245943156467 x[92]
   + 3.568283329095737 x[93] + 2.463246277172058 x[94]
   + 3.682295988790019 x[95] + 2.599423707975733 x[96]
   + 2.873568448398497 x[97] + 4.46754624636811 x[98]
   + 2.993223590785047 x[99] + 4.087281316737 x[100]
   + 1.092959857648218 x[101] + 4.246254763008625 x[102]
   + 4.67303901347438 x[103] + 0.3391530721074588 x[104]
   + 2.880448060569469 x[105] + 3.611323589682806 x[106]
   + 3.141610555738167 x[107] + 1.253159864894862 x[108]
   + 1.95481726332974 x[109] + 2.950328042670941 x[110]
   + 2.616387357385846 x[111] + 3.258823080537206 x[112]
   + 2.223984586042821 x[113] + 3.495988431402399 x[114]
   + 2.941255796234582 x[115] + 4.326178517950804 x[116]
   + 1.597734151005438 x[117] + 4.600539206620077 x[118]
   + 0.1675758592996368 x[119] + 3.977213400042137 x[120]
   + 4.233460892828742 x[121] + 2.159805541202386 x[122]
   + 3.235149940512891 x[123] + 3.938497282122227 x[124]
   + 3.390753492240636 x[125] + 0.9752709125759799 x[126]
   + 1.736478251690338 x[127] + 1.234435192275007 x[128]
   + 4.191848335974271 x[129] + 2.825023508885507 x[130]
   + 4.439086640784328 x[131] + 3.026842814658657 x[132]
   + 3.930872191723844 x[133] + 1.075389834507494 x[134]
   + 0.2038003782905508 x[135] + 2.796981366772748 x[136]
   + 1.659595313638113 x[137] + 1.494345642318419 x[138]
   + 1.82478266011081 x[139] + 3.34300957855511 x[140]
   + 2.009290809121985 x[141] + 3.27282782486896 x[142]
   + 2.101345498904722 x[143] + 0.7639053520201299 x[144]
   + 1.049301805318318 x[145] + 4.448521143594693 x[146]
   + 4.715949855282707 x[147] + 3.024102473457895 x[148]
   + 4.061799260800877 x[149] + 99 u[0] + 59 u[1] + 45 u[2] + 86 u[3]
   + 95 u[4] + 5 u[5] + 68 u[6] + 59 u[7] + 80 u[8] + 5 u[9] + 63 u[10]
   + 34 u[11] + 83 u[12] + 67 u[13] + 40 u[14] + 76 u[15] + 20 u[16]
   + 59 u[17] + 20 u[18] + 77 u[19] + 84 u[20] + 23 u[21] + 39 u[22]
   + 82 u[23] + 68 u[24] + 59 u[25] + 85 u[26] + 83 u[27] + 57 u[28]
   + 30 u[29] + 77 u[30] + 95 u[31] + 47 u[32] + 76 u[33] + 31 u[34]
   + 84 u[35] + 3 u[36] + 72 u[37] + 23 u[38] + 14 u[39] + 70 u[40]
   + 89 u[41] + 69 u[42] + 9 u[43] + 94 u[44] + 54 u[45] + 97 u[46]
   + 57 u[47] + 90 u[48] + 7 u[49] + 54 u[50] + 95 u[51] + 96 u[52]
   + 19 u[53] + 20 u[54] + 23 u[55] + 44 u[56] + 46 u[57] + 67 u[58]
   + u[59] + 92 u[60] + 94 u[61] + 39 u[62] + 78 u[63] + 23 u[64]
   + 19 u[65] + 96 u[66] + 82 u[67] + 15 u[68] + 69 u[69] + 81 u[70]
   + 61 u[71] + 41 u[72] + 26 u[73] + 55 u[74] + 72 u[75] + 2 u[76]
   + 58 u[77] + 36 u[78] + 30 u[79] + 89 u[80] + 61 u[81] + 38 u[82]
   + 61 u[83] + 77 u[84] + 21 u[85] + 79 u[86] + 43 u[87] + 21 u[88]
   + 74 u[89] + 40 u[90] + 76 u[91] + 8 u[92] + 27 u[93] + 39 u[94]
   + 64 u[95] + 4 u[96] + 4 u[97] + 19 u[98] + 27 u[99] + 60 u[100]
   + 59 u[101] + 81 u[102] + 87 u[103] + 8 u[104] + 25 u[105] + 22 u[106]
   + 26 u[107] + 54 u[108] + 48 u[109] + 14 u[110] + 98 u[111] + 48 u[112]
   + 8 u[113] + 44 u[114] + 82 u[115] + 26 u[116] + 80 u[117] + 60 u[118]
   + 44 u[119] + 99 u[120] + 4 u[121] + 3 u[122] + 46 u[123] + 12 u[124]
   + 50 u[125] + 99 u[126] + 99 u[127] + 50 u[128] + 42 u[129] + 69 u[130]
   + 20 u[131] + 98 u[132] + 15 u[133] + 92 u[134] + 33 u[135] + 8 u[136]
   + 22 u[137] + 69 u[138] + 35 u[139] + 94 u[140] + 20 u[141] + 14 u[142]
   + 10 u[143] + 20 u[144] + 85 u[145] + 17 u[146] + 46 u[147] + 20 u[148]
   + 5 u[149] <= 1056
 mccormick1[0]: - u[0] + r[0] <= 0
 mccormick1[1]: - u[1] + r[1] <= 0
 mccormick1[2]: - u[2] + r[2] <= 0
 mccormick1[3]: - u[3] + r[3] <= 0
 mccormick1[4]: - u[4] + r[4] <= 0
 mccormick1[5]: - u[5] + r[5] <= 0
 mccormick1[6]: - u[6] + r[6] <= 0
 mccormick1[7]: - u[7] + r[7] <= 0
 mccormick1[8]: - u[8] + r[8] <= 0
 mccormick1[9]: - u[9] + r[9] <= 0
 mccormick1[10]: - u[10] + r[10] <= 0
 mccormick1[11]: - u[11] + r[11] <= 0
 mccormick1[12]: - u[12] + r[12] <= 0
 mccormick1[13]: - u[13] + r[13] <= 0
 mccormick1[14]: - u[14] + r[14] <= 0
 mccormick1[15]: - u[15] + r[15] <= 0
 mccormick1[16]: - u[16] + r[16] <= 0
 mccormick1[17]: - u[17] + r[17] <= 0
 mccormick1[18]: - u[18] + r[18] <= 0
 mccormick1[19]: - u[19] + r[19] <= 0
 mccormick1[20]: - u[20] + r[20] <= 0
 mccormick1[21]: - u[21] + r[21] <= 0
 mccormick1[22]: - u[22] + r[22] <= 0
 mccormick1[23]: - u[23] + r[23] <= 0
 mccormick1[24]: - u[24] + r[24] <= 0
 mccormick1[25]: - u[25] + r[25] <= 0
 mccormick1[26]: - u[26] + r[26] <= 0
 mccormick1[27]: - u[27] + r[27] <= 0
 mccormick1[28]: - u[28] + r[28] <= 0
 mccormick1[29]: - u[29] + r[29] <= 0
 mccormick1[30]: - u[30] + r[30] <= 0
 mccormick1[31]: - u[31] + r[31] <= 0
 mccormick1[32]: - u[32] + r[32] <= 0
 mccormick1[33]: - u[33] + r[33] <= 0
 mccormick1[34]: - u[34] + r[34] <= 0
 mccormick1[35]: - u[35] + r[35] <= 0
 mccormick1[36]: - u[36] + r[36] <= 0
 mccormick1[37]: - u[37] + r[37] <= 0
 mccormick1[38]: - u[38] + r[38] <= 0
 mccormick1[39]: - u[39] + r[39] <= 0
 mccormick1[40]: - u[40] + r[40] <= 0
 mccormick1[41]: - u[41] + r[41] <= 0
 mccormick1[42]: - u[42] + r[42] <= 0
 mccormick1[43]: - u[43] + r[43] <= 0
 mccormick1[44]: - u[44] + r[44] <= 0
 mccormick1[45]: - u[45] + r[45] <= 0
 mccormick1[46]: - u[46] + r[46] <= 0
 mccormick1[47]: - u[47] + r[47] <= 0
 mccormick1[48]: - u[48] + r[48] <= 0
 mccormick1[49]: - u[49] + r[49] <= 0
 mccormick1[50]: - u[50] + r[50] <= 0
 mccormick1[51]: - u[51] + r[51] <= 0
 mccormick1[52]: - u[52] + r[52] <= 0
 mccormick1[53]: - u[53] + r[53] <= 0
 mccormick1[54]: - u[54] + r[54] <= 0
 mccormick1[55]: - u[55] + r[55] <= 0
 mccormick1[56]: - u[56] + r[56] <= 0
 mccormick1[57]: - u[57] + r[57] <= 0
 mccormick1[58]: - u[58] + r[58] <= 0
 mccormick1[59]: - u[59] + r[59] <= 0
 mccormick1[60]: - u[60] + r[60] <= 0
 mccormick1[61]: - u[61] + r[61] <= 0
 mccormick1[62]: - u[62] + r[62] <= 0
 mccormick1[63]: - u[63] + r[63] <= 0
 mccormick1[64]: - u[64] + r[64] <= 0
 mccormick1[65]: - u[65] + r[65] <= 0
 mccormick1[66]: - u[66] + r[66] <= 0
 mccormick1[67]: - u[67] + r[67] <= 0
 mccormick1[68]: - u[68] + r[68] <= 0
 mccormick1[69]: - u[69] + r[69] <= 0
 mccormick1[70]: - u[70] + r[70] <= 0
 mccormick1[71]: - u[71] + r[71] <= 0
 mccormick1[72]: - u[72] + r[72] <= 0
 mccormick1[73]: - u[73] + r[73] <= 0
 mccormick1[74]: - u[74] + r[74] <= 0
 mccormick1[75]: - u[75] + r[75] <= 0
 mccormick1[76]: - u[76] + r[76] <= 0
 mccormick1[77]: - u[77] + r[77] <= 0
 mccormick1[78]: - u[78] + r[78] <= 0
 mccormick1[79]: - u[79] + r[79] <= 0
 mccormick1[80]: - u[80] + r[80] <= 0
 mccormick1[81]: - u[81] + r[81] <= 0
 mccormick1[82]: - u[82] + r[82] <= 0
 mccormick1[83]: - u[83] + r[83] <= 0
 mccormick1[84]: - u[84] + r[84] <= 0
 mccormick1[85]: - u[85] + r[85] <= 0
 mccormick1[86]: - u[86] + r[86] <= 0
 mccormick1[87]: - u[87] + r[87] <= 0
 mccormick1[88]: - u[88] + r[88] <= 0
 mccormick1[89]: - u[89] + r[89] <= 0
 mccormick1[90]: - u[90] + r[90] <= 0
 mccormick1[91]: - u[91] + r[91] <= 0
 mccormick1[92]: - u[92] + r[92] <= 0
 mccormick1[93]: - u[93] + r[93] <= 0
 mccormick1[94]: - u[94] + r[94] <= 0
 mccormick1[95]: - u[95] + r[95] <= 0
 mccormick1[96]: - u[96] + r[96] <= 0
 mccormick1[97]: - u[97] + r[97] <= 0
 mccormick1[98]: - u[98] + r[98] <= 0
 mccormick1[99]: - u[99] + r[99] <= 0
 mccormick1[100]: - u[100] + r[100] <= 0
 mccormick1[101]: - u[101] + r[101] <= 0
 mccormick1[102]: - u[102] + r[102] <= 0
 mccormick1[103]: - u[103] + r[103] <= 0
 mccormick1[104]: - u[104] + r[104] <= 0
 mccormick1[105]: - u[105] + r[105] <= 0
 mccormick1[106]: - u[106] + r[106] <= 0
 mccormick1[107]: - u[107] + r[107] <= 0
 mccormick1[108]: - u[108] + r[108] <= 0
 mccormick1[109]: - u[109] + r[109] <= 0
 mccormick1[110]: - u[110] + r[110] <= 0
 mccormick1[111]: - u[111] + r[111] <= 0
 mccormick1[112]: - u[112] + r[112] <= 0
 mccormick1[113]: - u[113] + r[113] <= 0
 mccormick1[114]: - u[114] + r[114] <= 0
 mccormick1[115]: - u[115] + r[115] <= 0
 mccormick1[116]: - u[116] + r[116] <= 0
 mccormick1[117]: - u[117] + r[117] <= 0
 mccormick1[118]: - u[118] + r[118] <= 0
 mccormick1[119]: - u[119] + r[119] <= 0
 mccormick1[120]: - u[120] + r[120] <= 0
 mccormick1[121]: - u[121] + r[121] <= 0
 mccormick1[122]: - u[122] + r[122] <= 0
 mccormick1[123]: - u[123] + r[123] <= 0
 mccormick1[124]: - u[124] + r[124] <= 0
 mccormick1[125]: - u[125] + r[125] <= 0
 mccormick1[126]: - u[126] + r[126] <= 0
 mccormick1[127]: - u[127] + r[127] <= 0
 mccormick1[128]: - u[128] + r[128] <= 0
 mccormick1[129]: - u[129] + r[129] <= 0
 mccormick1[130]: - u[130] + r[130] <= 0
 mccormick1[131]: - u[131] + r[131] <= 0
 mccormick1[132]: - u[132] + r[132] <= 0
 mccormick1[133]: - u[133] + r[133] <= 0
 mccormick1[134]: - u[134] + r[134] <= 0
 mccormick1[135]: - u[135] + r[135] <= 0
 mccormick1[136]: - u[136] + r[136] <= 0
 mccormick1[137]: - u[137] + r[137] <= 0
 mccormick1[138]: - u[138] + r[138] <= 0
 mccormick1[139]: - u[139] + r[139] <= 0
 mccormick1[140]: - u[140] + r[140] <= 0
 mccormick1[141]: - u[141] + r[141] <= 0
 mccormick1[142]: - u[142] + r[142] <= 0
 mccormick1[143]: - u[143] + r[143] <= 0
 mccormick1[144]: - u[144] + r[144] <= 0
 mccormick1[145]: - u[145] + r[145] <= 0
 mccormick1[146]: - u[146] + r[146] <= 0
 mccormick1[147]: - u[147] + r[147] <= 0
 mccormick1[148]: - u[148] + r[148] <= 0
 mccormick1[149]: - u[149] + r[149] <= 0
 mccormick2[0]: - x[0] + r[0] <= 0
 mccormick2[1]: - x[1] + r[1] <= 0
 mccormick2[2]: - x[2] + r[2] <= 0
 mccormick2[3]: - x[3] + r[3] <= 0
 mccormick2[4]: - x[4] + r[4] <= 0
 mccormick2[5]: - x[5] + r[5] <= 0
 mccormick2[6]: - x[6] + r[6] <= 0
 mccormick2[7]: - x[7] + r[7] <= 0
 mccormick2[8]: - x[8] + r[8] <= 0
 mccormick2[9]: - x[9] + r[9] <= 0
 mccormick2[10]: - x[10] + r[10] <= 0
 mccormick2[11]: - x[11] + r[11] <= 0
 mccormick2[12]: - x[12] + r[12] <= 0
 mccormick2[13]: - x[13] + r[13] <= 0
 mccormick2[14]: - x[14] + r[14] <= 0
 mccormick2[15]: - x[15] + r[15] <= 0
 mccormick2[16]: - x[16] + r[16] <= 0
 mccormick2[17]: - x[17] + r[17] <= 0
 mccormick2[18]: - x[18] + r[18] <= 0
 mccormick2[19]: - x[19] + r[19] <= 0
 mccormick2[20]: - x[20] + r[20] <= 0
 mccormick2[21]: - x[21] + r[21] <= 0
 mccormick2[22]: - x[22] + r[22] <= 0
 mccormick2[23]: - x[23] + r[23] <= 0
 mccormick2[24]: - x[24] + r[24] <= 0
 mccormick2[25]: - x[25] + r[25] <= 0
 mccormick2[26]: - x[26] + r[26] <= 0
 mccormick2[27]: - x[27] + r[27] <= 0
 mccormick2[28]: - x[28] + r[28] <= 0
 mccormick2[29]: - x[29] + r[29] <= 0
 mccormick2[30]: - x[30] + r[30] <= 0
 mccormick2[31]: - x[31] + r[31] <= 0
 mccormick2[32]: - x[32] + r[32] <= 0
 mccormick2[33]: - x[33] + r[33] <= 0
 mccormick2[34]: - x[34] + r[34] <= 0
 mccormick2[35]: - x[35] + r[35] <= 0
 mccormick2[36]: - x[36] + r[36] <= 0
 mccormick2[37]: - x[37] + r[37] <= 0
 mccormick2[38]: - x[38] + r[38] <= 0
 mccormick2[39]: - x[39] + r[39] <= 0
 mccormick2[40]: - x[40] + r[40] <= 0
 mccormick2[41]: - x[41] + r[41] <= 0
 mccormick2[42]: - x[42] + r[42] <= 0
 mccormick2[43]: - x[43] + r[43] <= 0
 mccormick2[44]: - x[44] + r[44] <= 0
 mccormick2[45]: - x[45] + r[45] <= 0
 mccormick2[46]: - x[46] + r[46] <= 0
 mccormick2[47]: - x[47] + r[47] <= 0
 mccormick2[48]: - x[48] + r[48] <= 0
 mccormick2[49]: - x[49] + r[49] <= 0
 mccormick2[50]: - x[50] + r[50] <= 0
 mccormick2[51]: - x[51] + r[51] <= 0
 mccormick2[52]: - x[52] + r[52] <= 0
 mccormick2[53]: - x[53] + r[53] <= 0
 mccormick2[54]: - x[54] + r[54] <= 0
 mccormick2[55]: - x[55] + r[55] <= 0
 mccormick2[56]: - x[56] + r[56] <= 0
 mccormick2[57]: - x[57] + r[57] <= 0
 mccormick2[58]: - x[58] + r[58] <= 0
 mccormick2[59]: - x[59] + r[59] <= 0
 mccormick2[60]: - x[60] + r[60] <= 0
 mccormick2[61]: - x[61] + r[61] <= 0
 mccormick2[62]: - x[62] + r[62] <= 0
 mccormick2[63]: - x[63] + r[63] <= 0
 mccormick2[64]: - x[64] + r[64] <= 0
 mccormick2[65]: - x[65] + r[65] <= 0
 mccormick2[66]: - x[66] + r[66] <= 0
 mccormick2[67]: - x[67] + r[67] <= 0
 mccormick2[68]: - x[68] + r[68] <= 0
 mccormick2[69]: - x[69] + r[69] <= 0
 mccormick2[70]: - x[70] + r[70] <= 0
 mccormick2[71]: - x[71] + r[71] <= 0
 mccormick2[72]: - x[72] + r[72] <= 0
 mccormick2[73]: - x[73] + r[73] <= 0
 mccormick2[74]: - x[74] + r[74] <= 0
 mccormick2[75]: - x[75] + r[75] <= 0
 mccormick2[76]: - x[76] + r[76] <= 0
 mccormick2[77]: - x[77] + r[77] <= 0
 mccormick2[78]: - x[78] + r[78] <= 0
 mccormick2[79]: - x[79] + r[79] <= 0
 mccormick2[80]: - x[80] + r[80] <= 0
 mccormick2[81]: - x[81] + r[81] <= 0
 mccormick2[82]: - x[82] + r[82] <= 0
 mccormick2[83]: - x[83] + r[83] <= 0
 mccormick2[84]: - x[84] + r[84] <= 0
 mccormick2[85]: - x[85] + r[85] <= 0
 mccormick2[86]: - x[86] + r[86] <= 0
 mccormick2[87]: - x[87] + r[87] <= 0
 mccormick2[88]: - x[88] + r[88] <= 0
 mccormick2[89]: - x[89] + r[89] <= 0
 mccormick2[90]: - x[90] + r[90] <= 0
 mccormick2[91]: - x[91] + r[91] <= 0
 mccormick2[92]: - x[92] + r[92] <= 0
 mccormick2[93]: - x[93] + r[93] <= 0
 mccormick2[94]: - x[94] + r[94] <= 0
 mccormick2[95]: - x[95] + r[95] <= 0
 mccormick2[96]: - x[96] + r[96] <= 0
 mccormick2[97]: - x[97] + r[97] <= 0
 mccormick2[98]: - x[98] + r[98] <= 0
 mccormick2[99]: - x[99] + r[99] <= 0
 mccormick2[100]: - x[100] + r[100] <= 0
 mccormick2[101]: - x[101] + r[101] <= 0
 mccormick2[102]: - x[102] + r[102] <= 0
 mccormick2[103]: - x[103] + r[103] <= 0
 mccormick2[104]: - x[104] + r[104] <= 0
 mccormick2[105]: - x[105] + r[105] <= 0
 mccormick2[106]: - x[106] + r[106] <= 0
 mccormick2[107]: - x[107] + r[107] <= 0
 mccormick2[108]: - x[108] + r[108] <= 0
 mccormick2[109]: - x[109] + r[109] <= 0
 mccormick2[110]: - x[110] + r[110] <= 0
 mccormick2[111]: - x[111] + r[111] <= 0
 mccormick2[112]: - x[112] + r[112] <= 0
 mccormick2[113]: - x[113] + r[113] <= 0
 mccormick2[114]: - x[114] + r[114] <= 0
 mccormick2[115]: - x[115] + r[115] <= 0
 mccormick2[116]: - x[116] + r[116] <= 0
 mccormick2[117]: - x[117] + r[117] <= 0
 mccormick2[118]: - x[118] + r[118] <= 0
 mccormick2[119]: - x[119] + r[119] <= 0
 mccormick2[120]: - x[120] + r[120] <= 0
 mccormick2[121]: - x[121] + r[121] <= 0
 mccormick2[122]: - x[122] + r[122] <= 0
 mccormick2[123]: - x[123] + r[123] <= 0
 mccormick2[124]: - x[124] + r[124] <= 0
 mccormick2[125]: - x[125] + r[125] <= 0
 mccormick2[126]: - x[126] + r[126] <= 0
 mccormick2[127]: - x[127] + r[127] <= 0
 mccormick2[128]: - x[128] + r[128] <= 0
 mccormick2[129]: - x[129] + r[129] <= 0
 mccormick2[130]: - x[130] + r[130] <= 0
 mccormick2[131]: - x[131] + r[131] <= 0
 mccormick2[132]: - x[132] + r[132] <= 0
 mccormick2[133]: - x[133] + r[133] <= 0
 mccormick2[134]: - x[134] + r[134] <= 0
 mccormick2[135]: - x[135] + r[135] <= 0
 mccormick2[136]: - x[136] + r[136] <= 0
 mccormick2[137]: - x[137] + r[137] <= 0
 mccormick2[138]: - x[138] + r[138] <= 0
 mccormick2[139]: - x[139] + r[139] <= 0
 mccormick2[140]: - x[140] + r[140] <= 0
 mccormick2[141]: - x[141] + r[141] <= 0
 mccormick2[142]: - x[142] + r[142] <= 0
 mccormick2[143]: - x[143] + r[143] <= 0
 mccormick2[144]: - x[144] + r[144] <= 0
 mccormick2[145]: - x[145] + r[145] <= 0
 mccormick2[146]: - x[146] + r[146] <= 0
 mccormick2[147]: - x[147] + r[147] <= 0
 mccormick2[148]: - x[148] + r[148] <= 0
 mccormick2[149]: - x[149] + r[149] <= 0
 mccormick3[0]: x[0] + u[0] - r[0] <= 1
 mccormick3[1]: x[1] + u[1] - r[1] <= 1
 mccormick3[2]: x[2] + u[2] - r[2] <= 1
 mccormick3[3]: x[3] + u[3] - r[3] <= 1
 mccormick3[4]: x[4] + u[4] - r[4] <= 1
 mccormick3[5]: x[5] + u[5] - r[5] <= 1
 mccormick3[6]: x[6] + u[6] - r[6] <= 1
 mccormick3[7]: x[7] + u[7] - r[7] <= 1
 mccormick3[8]: x[8] + u[8] - r[8] <= 1
 mccormick3[9]: x[9] + u[9] - r[9] <= 1
 mccormick3[10]: x[10] + u[10] - r[10] <= 1
 mccormick3[11]: x[11] + u[11] - r[11] <= 1
 mccormick3[12]: x[12] + u[12] - r[12] <= 1
 mccormick3[13]: x[13] + u[13] - r[13] <= 1
 mccormick3[14]: x[14] + u[14] - r[14] <= 1
 mccormick3[15]: x[15] + u[15] - r[15] <= 1
 mccormick3[16]: x[16] + u[16] - r[16] <= 1
 mccormick3[17]: x[17] + u[17] - r[17] <= 1
 mccormick3[18]: x[18] + u[18] - r[18] <= 1
 mccormick3[19]: x[19] + u[19] - r[19] <= 1
 mccormick3[20]: x[20] + u[20] - r[20] <= 1
 mccormick3[21]: x[21] + u[21] - r[21] <= 1
 mccormick3[22]: x[22] + u[22] - r[22] <= 1
 mccormick3[23]: x[23] + u[23] - r[23] <= 1
 mccormick3[24]: x[24] + u[24] - r[24] <= 1
 mccormick3[25]: x[25] + u[25] - r[25] <= 1
 mccormick3[26]: x[26] + u[26] - r[26] <= 1
 mccormick3[27]: x[27] + u[27] - r[27] <= 1
 mccormick3[28]: x[28] + u[28] - r[28] <= 1
 mccormick3[29]: x[29] + u[29] - r[29] <= 1
 mccormick3[30]: x[30] + u[30] - r[30] <= 1
 mccormick3[31]: x[31] + u[31] - r[31] <= 1
 mccormick3[32]: x[32] + u[32] - r[32] <= 1
 mccormick3[33]: x[33] + u[33] - r[33] <= 1
 mccormick3[34]: x[34] + u[34] - r[34] <= 1
 mccormick3[35]: x[35] + u[35] - r[35] <= 1
 mccormick3[36]: x[36] + u[36] - r[36] <= 1
 mccormick3[37]: x[37] + u[37] - r[37] <= 1
 mccormick3[38]: x[38] + u[38] - r[38] <= 1
 mccormick3[39]: x[39] + u[39] - r[39] <= 1
 mccormick3[40]: x[40] + u[40] - r[40] <= 1
 mccormick3[41]: x[41] + u[41] - r[41] <= 1
 mccormick3[42]: x[42] + u[42] - r[42] <= 1
 mccormick3[43]: x[43] + u[43] - r[43] <= 1
 mccormick3[44]: x[44] + u[44] - r[44] <= 1
 mccormick3[45]: x[45] + u[45] - r[45] <= 1
 mccormick3[46]: x[46] + u[46] - r[46] <= 1
 mccormick3[47]: x[47] + u[47] - r[47] <= 1
 mccormick3[48]: x[48] + u[48] - r[48] <= 1
 mccormick3[49]: x[49] + u[49] - r[49] <= 1
 mccormick3[50]: x[50] + u[50] - r[50] <= 1
 mccormick3[51]: x[51] + u[51] - r[51] <= 1
 mccormick3[52]: x[52] + u[52] - r[52] <= 1
 mccormick3[53]: x[53] + u[53] - r[53] <= 1
 mccormick3[54]: x[54] + u[54] - r[54] <= 1
 mccormick3[55]: x[55] + u[55] - r[55] <= 1
 mccormick3[56]: x[56] + u[56] - r[56] <= 1
 mccormick3[57]: x[57] + u[57] - r[57] <= 1
 mccormick3[58]: x[58] + u[58] - r[58] <= 1
 mccormick3[59]: x[59] + u[59] - r[59] <= 1
 mccormick3[60]: x[60] + u[60] - r[60] <= 1
 mccormick3[61]: x[61] + u[61] - r[61] <= 1
 mccormick3[62]: x[62] + u[62] - r[62] <= 1
 mccormick3[63]: x[63] + u[63] - r[63] <= 1
 mccormick3[64]: x[64] + u[64] - r[64] <= 1
 mccormick3[65]: x[65] + u[65] - r[65] <= 1
 mccormick3[66]: x[66] + u[66] - r[66] <= 1
 mccormick3[67]: x[67] + u[67] - r[67] <= 1
 mccormick3[68]: x[68] + u[68] - r[68] <= 1
 mccormick3[69]: x[69] + u[69] - r[69] <= 1
 mccormick3[70]: x[70] + u[70] - r[70] <= 1
 mccormick3[71]: x[71] + u[71] - r[71] <= 1
 mccormick3[72]: x[72] + u[72] - r[72] <= 1
 mccormick3[73]: x[73] + u[73] - r[73] <= 1
 mccormick3[74]: x[74] + u[74] - r[74] <= 1
 mccormick3[75]: x[75] + u[75] - r[75] <= 1
 mccormick3[76]: x[76] + u[76] - r[76] <= 1
 mccormick3[77]: x[77] + u[77] - r[77] <= 1
 mccormick3[78]: x[78] + u[78] - r[78] <= 1
 mccormick3[79]: x[79] + u[79] - r[79] <= 1
 mccormick3[80]: x[80] + u[80] - r[80] <= 1
 mccormick3[81]: x[81] + u[81] - r[81] <= 1
 mccormick3[82]: x[82] + u[82] - r[82] <= 1
 mccormick3[83]: x[83] + u[83] - r[83] <= 1
 mccormick3[84]: x[84] + u[84] - r[84] <= 1
 mccormick3[85]: x[85] + u[85] - r[85] <= 1
 mccormick3[86]: x[86] + u[86] - r[86] <= 1
 mccormick3[87]: x[87] + u[87] - r[87] <= 1
 mccormick3[88]: x[88] + u[88] - r[88] <= 1
 mccormick3[89]: x[89] + u[89] - r[89] <= 1
 mccormick3[90]: x[90] + u[90] - r[90] <= 1
 mccormick3[91]: x[91] + u[91] - r[91] <= 1
 mccormick3[92]: x[92] + u[92] - r[92] <= 1
 mccormick3[93]: x[93] + u[93] - r[93] <= 1
 mccormick3[94]: x[94] + u[94] - r[94] <= 1
 mccormick3[95]: x[95] + u[95] - r[95] <= 1
 mccormick3[96]: x[96] + u[96] - r[96] <= 1
 mccormick3[97]: x[97] + u[97] - r[97] <= 1
 mccormick3[98]: x[98] + u[98] - r[98] <= 1
 mccormick3[99]: x[99] + u[99] - r[99] <= 1
 mccormick3[100]: x[100] + u[100] - r[100] <= 1
 mccormick3[101]: x[101] + u[101] - r[101] <= 1
 mccormick3[102]: x[102] + u[102] - r[102] <= 1
 mccormick3[103]: x[103] + u[103] - r[103] <= 1
 mccormick3[104]: x[104] + u[104] - r[104] <= 1
 mccormick3[105]: x[105] + u[105] - r[105] <= 1
 mccormick3[106]: x[106] + u[106] - r[106] <= 1
 mccormick3[107]: x[107] + u[107] - r[107] <= 1
 mccormick3[108]: x[108] + u[108] - r[108] <= 1
 mccormick3[109]: x[109] + u[109] - r[109] <= 1
 mccormick3[110]: x[110] + u[110] - r[110] <= 1
 mccormick3[111]: x[111] + u[111] - r[111] <= 1
 mccormick3[112]: x[112] + u[112] - r[112] <= 1
 mccormick3[113]: x[113] + u[113] - r[113] <= 1
 mccormick3[114]: x[114] + u[114] - r[114] <= 1
 mccormick3[115]: x[115] + u[115] - r[115] <= 1
 mccormick3[116]: x[116] + u[116] - r[116] <= 1
 mccormick3[117]: x[117] + u[117] - r[117] <= 1
 mccormick3[118]: x[118] + u[118] - r[118] <= 1
 mccormick3[119]: x[119] + u[119] - r[119] <= 1
 mccormick3[120]: x[120] + u[120] - r[120] <= 1
 mccormick3[121]: x[121] + u[121] - r[121] <= 1
 mccormick3[122]: x[122] + u[122] - r[122] <= 1
 mccormick3[123]: x[123] + u[123] - r[123] <= 1
 mccormick3[124]: x[124] + u[124] - r[124] <= 1
 mccormick3[125]: x[125] + u[125] - r[125] <= 1
 mccormick3[126]: x[126] + u[126] - r[126] <= 1
 mccormick3[127]: x[127] + u[127] - r[127] <= 1
 mccormick3[128]: x[128] + u[128] - r[128] <= 1
 mccormick3[129]: x[129] + u[129] - r[129] <= 1
 mccormick3[130]: x[130] + u[130] - r[130] <= 1
 mccormick3[131]: x[131] + u[131] - r[131] <= 1
 mccormick3[132]: x[132] + u[132] - r[132] <= 1
 mccormick3[133]: x[133] + u[133] - r[133] <= 1
 mccormick3[134]: x[134] + u[134] - r[134] <= 1
 mccormick3[135]: x[135] + u[135] - r[135] <= 1
 mccormick3[136]: x[136] + u[136] - r[136] <= 1
 mccormick3[137]: x[137] + u[137] - r[137] <= 1
 mccormick3[138]: x[138] + u[138] - r[138] <= 1
 mccormick3[139]: x[139] + u[139] - r[139] <= 1
 mccormick3[140]: x[140] + u[140] - r[140] <= 1
 mccormick3[141]: x[141] + u[141] - r[141] <= 1
 mccormick3[142]: x[142] + u[142] - r[142] <= 1
 mccormick3[143]: x[143] + u[143] - r[143] <= 1
 mccormick3[144]: x[144] + u[144] - r[144] <= 1
 mccormick3[145]: x[145] + u[145] - r[145] <= 1
 mccormick3[146]: x[146] + u[146] - r[146] <= 1
 mccormick3[147]: x[147] + u[147] - r[147] <= 1
 mccormick3[148]: x[148] + u[148] - r[148] <= 1
 mccormick3[149]: x[149] + u[149] - r[149] <= 1
Bounds
Binaries
 x[0] x[1] x[2] x[3] x[4] x[5] x[6] x[7] x[8] x[9] x[10] x[11] x[12] x[13]
 x[14] x[15] x[16] x[17] x[18] x[19] x[20] x[21] x[22] x[23] x[24] x[25]
 x[26] x[27] x[28] x[29] x[30] x[31] x[32] x[33] x[34] x[35] x[36] x[37]
 x[38] x[39] x[40] x[41] x[42] x[43] x[44] x[45] x[46] x[47] x[48] x[49]
 x[50] x[51] x[52] x[53] x[54] x[55] x[56] x[57] x[58] x[59] x[60] x[61]
 x[62] x[63] x[64] x[65] x[66] x[67] x[68] x[69] x[70] x[71] x[72] x[73]
 x[74] x[75] x[76] x[77] x[78] x[79] x[80] x[81] x[82] x[83] x[84] x[85]
 x[86] x[87] x[88] x[89] x[90] x[91] x[92] x[93] x[94] x[95] x[96] x[97]
 x[98] x[99] x[100] x[101] x[102] x[103] x[104] x[105] x[106] x[107] x[108]
 x[109] x[110] x[111] x[112] x[113] x[114] x[115] x[116] x[117] x[118]
 x[119] x[120] x[121] x[122] x[123] x[124] x[125] x[126] x[127] x[128]
 x[129] x[130] x[131] x[132] x[133] x[134] x[135] x[136] x[137] x[138]
 x[139] x[140] x[141] x[142] x[143] x[144] x[145] x[146] x[147] x[148]
 x[149] u[0] u[1] u[2] u[3] u[4] u[5] u[6] u[7] u[8] u[9] u[10] u[11] u[12]
 u[13] u[14] u[15] u[16] u[17] u[18] u[19] u[20] u[21] u[22] u[23] u[24]
 u[25] u[26] u[27] u[28] u[29] u[30] u[31] u[32] u[33] u[34] u[35] u[36]
 u[37] u[38] u[39] u[40] u[41] u[42] u[43] u[44] u[45] u[46] u[47] u[48]
 u[49] u[50] u[51] u[52] u[53] u[54] u[55] u[56] u[57] u[58] u[59] u[60]
 u[61] u[62] u[63] u[64] u[65] u[66] u[67] u[68] u[69] u[70] u[71] u[72]
 u[73] u[74] u[75] u[76] u[77] u[78] u[79] u[80] u[81] u[82] u[83] u[84]
 u[85] u[86] u[87] u[88] u[89] u[90] u[91] u[92] u[93] u[94] u[95] u[96]
 u[97] u[98] u[99] u[100] u[101] u[102] u[103] u[104] u[105] u[106] u[107]
 u[108] u[109] u[110] u[111] u[112] u[113] u[114] u[115] u[116] u[117]
 u[118] u[119] u[120] u[121] u[122] u[123] u[124] u[125] u[126] u[127]
 u[128] u[129] u[130] u[131] u[132] u[133] u[134] u[135] u[136] u[137]
 u[138] u[139] u[140] u[141] u[142] u[143] u[144] u[145] u[146] u[147]
 u[148] u[149] r[0] r[1] r[2] r[3] r[4] r[5] r[6] r[7] r[8] r[9] r[10]
 r[11] r[12] r[13] r[14] r[15] r[16] r[17] r[18] r[19] r[20] r[21] r[22]
 r[23] r[24] r[25] r[26] r[27] r[28] r[29] r[30] r[31] r[32] r[33] r[34]
 r[35] r[36] r[37] r[38] r[39] r[40] r[41] r[42] r[43] r[44] r[45] r[46]
 r[47] r[48] r[49] r[50] r[51] r[52] r[53] r[54] r[55] r[56] r[57] r[58]
 r[59] r[60] r[61] r[62] r[63] r[64] r[65] r[66] r[67] r[68] r[69] r[70]
 r[71] r[72] r[73] r[74] r[75] r[76] r[77] r[78] r[79] r[80] r[81] r[82]
 r[83] r[84] r[85] r[86] r[87] r[88] r[89] r[90] r[91] r[92] r[93] r[94]
 r[95] r[96] r[97] r[98] r[99] r[100] r[101] r[102] r[103] r[104] r[105]
 r[106] r[107] r[108] r[109] r[110] r[111] r[112] r[113] r[114] r[115]
 r[116] r[117] r[118] r[119] r[120] r[121] r[122] r[123] r[124] r[125]
 r[126] r[127] r[128] r[129] r[130] r[131] r[132] r[133] r[134] r[135]
 r[136] r[137] r[138] r[139] r[140] r[141] r[142] r[143] r[144] r[145]
 r[146] r[147] r[148] r[149]
End
