instances/knapsack/discrete_knapsack_uncertainty/knapsack_150_7.kp
15149
150
764

19 1.9 52
80 8.0 64
46 4.6 50
83 8.3 78
68 6.8 7
41 4.1 83
97 9.7 23
91 9.1 85
33 3.3 60
94 9.4 28
99 9.9 25
91 9.1 97
28 2.8 89
84 8.4 72
76 7.6 93
64 6.4 46
41 4.1 84
88 8.8 76
9 0.9 100
66 6.6 35
21 2.1 35
19 1.9 85
76 7.6 22
98 9.8 22
4 0.4 91
16 1.6 28
78 7.8 74
35 3.5 73
65 6.5 36
51 5.1 90
9 0.9 71
31 3.1 50
71 7.1 34
53 5.3 81
32 3.2 49
5 0.5 39
40 4.0 99
40 4.0 29
88 8.8 12
6 0.6 45
3 0.3 50
53 5.3 75
30 3.0 95
17 1.7 65
19 1.9 56
94 9.4 89
61 6.1 10
89 8.9 10
71 7.1 66
40 4.0 63
94 9.4 9
24 2.4 76
1 0.1 1
60 6.0 67
16 1.6 26
63 6.3 96
61 6.1 72
66 6.6 62
100 10.0 82
14 1.4 9
88 8.8 62
18 1.8 100
63 6.3 51
6 0.6 11
39 3.9 68
72 7.2 7
76 7.6 79
46 4.6 23
64 6.4 58
53 5.3 83
53 5.3 3
85 8.5 61
34 3.4 71
63 6.3 35
59 5.9 16
16 1.6 48
22 2.2 40
75 7.5 75
68 6.8 90
22 2.2 89
17 1.7 45
65 6.5 64
54 5.4 35
85 8.5 76
97 9.7 55
57 5.7 66
79 7.9 36
80 8.0 85
98 9.8 10
47 4.7 68
40 4.0 32
72 7.2 11
84 8.4 19
51 5.1 66
68 6.8 94
73 7.3 76
69 6.9 39
24 2.4 34
76 7.6 66
84 8.4 54
61 6.1 14
4 0.4 95
26 2.6 52
84 8.4 71
9 0.9 69
82 8.2 69
91 9.1 32
74 7.4 78
42 4.2 84
45 4.5 42
6 0.6 79
31 3.1 24
29 2.9 83
49 4.9 17
45 4.5 28
18 1.8 11
51 5.1 81
53 5.3 87
49 4.9 76
68 6.8 25
99 9.9 15
56 5.6 88
95 9.5 44
98 9.8 89
73 7.3 13
6 0.6 70
75 7.5 94
23 2.3 8
58 5.8 21
31 3.1 78
37 3.7 36
57 5.7 29
82 8.2 30
16 1.6 44
64 6.4 99
26 2.6 45
65 6.5 26
78 7.8 15
33 3.3 97
52 5.2 75
15 1.5 80
48 4.8 10
51 5.1 39
75 7.5 81
9 0.9 62
70 7.0 32
78 7.8 31
67 6.7 97
88 8.8 6
26 2.6 48

1056
722

[1.8392292908683447 1.1122240792101326 0.984591998368486 2.9693565559154123 4.220140203027961 0.5401732523592391 2.8843227547329695 3.2577419093773363 2.8932195678646497 3.732146004926755 3.860566410966441 3.9464222508782725 3.0965900172886873 3.32616493348856 1.026138864069829 3.2271003341828597 1.7196174312427037 3.583600457189925 0.6328708203601454 3.135300384008656 1.0688300464076668 1.3362166898940961 3.297318945246417 4.7522504118009445 2.452869921503597 2.741368775774226 3.0117214041637537 4.21182327302868 4.471225865942115 4.192211040073249 1.4770265468774952 2.8405285376431264 4.378301354660109 1.5316920531528804 0.9622063240616642 4.077805595731294 2.0336404903467935 3.2452423259377117 1.392786505801104 3.004326532552275 1.8917980082365906 0.9806429620593603 0.500697920484738 2.0072871902230007 1.7644320094118338 2.1884344299057266 1.8347801058180462 0.5134327271648493 3.471901771969061 4.13173036982915 1.0696019257716545 2.303292870011323 3.4149476505774397 0.9693485138195425 1.846534506897998 1.9794225122242464 1.1985488021753303 3.4198251305030123 4.609344006634135 2.213391103111973 1.0231302886189695 4.7370635673823775 0.052753862728251597 0.691354052365509 0.7351964868827792 2.8149802098565155 3.35319432667322 1.3636371000582987 4.1337216423983865 0.06114039623574379 1.2615603505394206 3.5393936209023016 0.5007202608175231 0.7233828939757511 4.614127713405622 3.6476369934887964 3.4477705677060473 4.526555871588418 2.7498001754487813 1.327087645451675 0.9995766075618816 1.2518841390245463 2.0746743703000257 0.5609327797878251 1.4864811413924206 0.7409643636054359 2.439473680079993 2.0404054132760536 1.9450616971398675 4.512876399044776 2.8632860655068284 1.7185171326436952 4.592245943156467 3.568283329095737 2.463246277172058 3.682295988790019 2.599423707975733 2.8735684483984967 4.46754624636811 2.9932235907850466 4.087281316737 1.0929598576482185 4.246254763008625 4.67303901347438 0.3391530721074588 2.880448060569469 3.611323589682806 3.1416105557381675 1.253159864894862 1.95481726332974 2.9503280426709413 2.6163873573858463 3.258823080537206 2.223984586042821 3.4959884314023992 2.941255796234582 4.326178517950804 1.597734151005438 4.600539206620077 0.16757585929963675 3.977213400042137 4.233460892828742 2.1598055412023855 3.2351499405128905 3.938497282122227 3.390753492240636 0.9752709125759799 1.7364782516903376 1.234435192275007 4.191848335974271 2.8250235088855074 4.439086640784328 3.026842814658657 3.930872191723844 1.0753898345074941 0.20380037829055084 2.7969813667727483 1.6595953136381132 1.4943456423184194 1.8247826601108097 3.3430095785551104 2.0092908091219845 3.2728278248689597 2.1013454989047218 0.7639053520201299 1.0493018053183183 4.448521143594693 4.715949855282707 3.024102473457895 4.061799260800877]

[99 59 45 86 95 5 68 59 80 5 63 34 83 67 40 76 20 59 20 77 84 23 39 82 68 59 85 83 57 30 77 95 47 76 31 84 3 72 23 14 70 89 69 9 94 54 97 57 90 7 54 95 96 19 20 23 44 46 67 1 92 94 39 78 23 19 96 82 15 69 81 61 41 26 55 72 2 58 36 30 89 61 38 61 77 21 79 43 21 74 40 76 8 27 39 64 4 4 19 27 60 59 81 87 8 25 22 26 54 48 14 98 48 8 44 82 26 80 60 44 99 4 3 46 12 50 99 99 50 42 69 20 98 15 92 33 8 22 69 35 94 20 14 10 20 85 17 46 20 5]
